10 113 280 493 1087 1252 1985 2052 2074 2130 2233 2730 2930 2943 3029 3297 3952 4221 4388 4493 4820 4920 5317 5451 5462 5564 5609 5896 5960 6087 6171 6701 7128 7667 7741 7957 8018 8487 8780 9035 9136 9489 9526 9684 9798 

